(set-logic QF_S)
(declare-fun _var_0xINPUT_131513_() String)
(declare-fun __woorpje_diseq_pref0_() String)
(declare-fun __woorpje_diseq_suf_l0_() String)
(declare-fun __woorpje_diseq_suf_r0_() String)
(declare-fun __woorpje_diseq_pref1_() String)
(declare-fun __woorpje_diseq_suf_l1_() String)
(declare-fun __woorpje_diseq_suf_r1_() String)
(assert (=(str.++ _var_0xINPUT_131513_  "")(str.++ __woorpje_diseq_pref1_  "J" __woorpje_diseq_suf_l1_  "")) )
(assert (=(str.++  "j2DpYJpVEE" "")(str.++ __woorpje_diseq_pref1_  "E" __woorpje_diseq_suf_r1_  "")) )
(assert  (<= (* (str.len _var_0xINPUT_131513_)1) 9) )
(check-sat)
